p cnf 18 38
a 12 15 0
e 1 2 3 4 5 6 7 8 9 10 11 13 14 16 17 18 0
-4 2 0
-4 3 0
-2 -3 4 0
5 -1 0
5 4 0
1 -4 -5 0
8 -6 0
8 7 0
6 -7 -8 0
9 -10 -11 0
-9 10 -11 0
9 10 11 0
-9 -10 11 0
-12 -8 0
-12 11 0
8 -11 12 0
-5 -12 -13 0
5 12 -13 0
-5 12 13 0
5 -12 13 0
3 6 -14 0
-3 -6 -14 0
3 -6 14 0
-3 6 14 0
16 15 0
16 -6 0
-15 6 -16 0
-17 -14 0
-17 -16 0
14 16 17 0
13 17 -18 0
-13 -17 -18 0
13 -17 18 0
-13 17 18 0
10 17 14 0
2 7 -13 -10 0
17 -6 -11 14 4 0
18 0
